1 1 0
1 2 56
1 3 39
1 4 76
1 5 109
1 6 156
1 7 140
1 8 141
1 9 135
1 10 183
1 11 108
1 12 155
1 13 104
1 14 76
1 15 79
1 16 104
1 17 97
1 18 88
1 19 130
1 20 176
1 21 121
1 22 131
1 23 150
1 24 125
1 25 85
1 26 65
1 27 57
1 28 94
1 29 160
1 30 80
1 31 162
1 32 67
1 33 128
1 34 20
1 35 48
1 36 126
1 37 172
1 38 162
1 39 142
1 40 124
1 41 133
1 42 164
1 43 97
1 44 132
1 45 151
1 46 142
1 47 74
1 48 96
1 49 87
1 50 103
1 51 145
1 52 102
1 53 66
1 54 176
1 55 119
1 56 40
2 1 57
2 2 0
2 3 16
2 4 20
2 5 53
2 6 100
2 7 84
2 8 87
2 9 107
2 10 155
2 11 85
2 12 132
2 13 81
2 14 53
2 15 56
2 16 81
2 17 74
2 18 65
2 19 146
2 20 186
2 21 137
2 22 147
2 23 166
2 24 141
2 25 101
2 26 81
2 27 73
2 28 110
2 29 164
2 30 102
2 31 166
2 32 71
2 33 105
2 34 42
2 35 70
2 36 103
2 37 144
2 38 139
2 39 119
2 40 101
2 41 149
2 42 180
2 43 113
2 44 148
2 45 155
2 46 158
2 47 89
2 48 100
2 49 42
2 50 119
2 51 161
2 52 79
2 53 64
2 54 180
2 55 135
2 56 62
3 1 41
3 2 62
3 3 0
3 4 82
3 5 97
3 6 144
3 7 131
3 8 102
3 9 96
3 10 144
3 11 69
3 12 116
3 13 65
3 14 37
3 15 40
3 16 65
3 17 58
3 18 49
3 19 130
3 20 170
3 21 121
3 22 131
3 23 150
3 24 125
3 25 85
3 26 65
3 27 57
3 28 94
3 29 166
3 30 86
3 31 168
3 32 73
3 33 89
3 34 26
3 35 54
3 36 87
3 37 133
3 38 123
3 39 103
3 40 85
3 41 133
3 42 164
3 43 97
3 44 132
3 45 157
3 46 142
3 47 80
3 48 102
3 49 93
3 50 103
3 51 145
3 52 63
3 53 48
3 54 182
3 55 119
3 56 46
4 1 120
4 2 63
4 3 79
4 4 0
4 5 33
4 6 80
4 7 64
4 8 67
4 9 87
4 10 135
4 11 100
4 12 147
4 13 130
4 14 116
4 15 119
4 16 144
4 17 137
4 18 128
4 19 209
4 20 226
4 21 200
4 22 189
4 23 208
4 24 153
4 25 164
4 26 144
4 27 136
4 28 122
4 29 144
4 30 107
4 31 146
4 32 51
4 33 93
4 34 105
4 35 91
4 36 109
4 37 124
4 38 154
4 39 159
4 40 150
4 41 212
4 42 238
4 43 176
4 44 160
4 45 135
4 46 144
4 47 69
4 48 80
4 49 22
4 50 131
4 51 203
4 52 106
4 53 127
4 54 160
4 55 175
4 56 83
5 1 135
5 2 161
5 3 174
5 4 142
5 5 0
5 6 47
5 7 34
5 8 34
5 9 54
5 10 102
5 11 67
5 12 114
5 13 97
5 14 97
5 15 96
5 16 128
5 17 135
5 18 131
5 19 198
5 20 193
5 21 203
5 22 213
5 23 232
5 24 207
5 25 167
5 26 147
5 27 139
5 28 176
5 29 222
5 30 204
5 31 224
5 32 148
5 33 60
5 34 155
5 35 183
5 36 76
5 37 91
5 38 121
5 39 126
5 40 117
5 41 215
5 42 246
5 43 179
5 44 214
5 45 213
5 46 222
5 47 166
5 48 117
5 49 120
5 50 185
5 51 227
5 52 73
5 53 130
5 54 238
5 55 201
5 56 175
6 1 171
6 2 114
6 3 130
6 4 95
6 5 60
6 6 0
6 7 40
6 8 94
6 9 114
6 10 162
6 11 127
6 12 174
6 13 157
6 14 157
6 15 156
6 16 188
6 17 188
6 18 179
6 19 258
6 20 253
6 21 251
6 22 239
6 23 258
6 24 203
6 25 215
6 26 195
6 27 187
6 28 172
6 29 175
6 30 157
6 31 177
6 32 101
6 33 120
6 34 156
6 35 141
6 36 136
6 37 151
6 38 181
6 39 186
6 40 177
6 41 263
6 42 288
6 43 227
6 44 210
6 45 166
6 46 175
6 47 119
6 48 70
6 49 73
6 50 181
6 51 253
6 52 133
6 53 178
6 54 191
6 55 225
6 56 133
7 1 169
7 2 132
7 3 148
7 4 113
7 5 34
7 6 31
7 7 0
7 8 68
7 9 88
7 10 133
7 11 101
7 12 148
7 13 131
7 14 131
7 15 130
7 16 162
7 17 169
7 18 165
7 19 232
7 20 227
7 21 237
7 22 247
7 23 266
7 24 221
7 25 201
7 26 181
7 27 173
7 28 190
7 29 193
7 30 175
7 31 195
7 32 119
7 33 94
7 34 174
7 35 159
7 36 110
7 37 122
7 38 155
7 39 160
7 40 151
7 41 249
7 42 280
7 43 213
7 44 228
7 45 184
7 46 193
7 47 137
7 48 88
7 49 91
7 50 199
7 51 261
7 52 107
7 53 164
7 54 209
7 55 235
7 56 151
8 1 101
8 2 157
8 3 140
8 4 176
8 5 34
8 6 81
8 7 68
8 8 0
8 9 20
8 10 68
8 11 33
8 12 80
8 13 63
8 14 63
8 15 62
8 16 94
8 17 101
8 18 97
8 19 164
8 20 159
8 21 169
8 22 179
8 23 198
8 24 173
8 25 133
8 26 113
8 27 105
8 28 142
8 29 224
8 30 175
8 31 216
8 32 168
8 33 26
8 34 121
8 35 149
8 36 42
8 37 57
8 38 87
8 39 92
8 40 83
8 41 181
8 42 212
8 43 145
8 44 180
8 45 215
8 46 190
8 47 169
8 48 151
8 49 154
8 50 151
8 51 193
8 52 39
8 53 96
8 54 240
8 55 167
8 56 141
9 1 121
9 2 177
9 3 160
9 4 196
9 5 54
9 6 101
9 7 88
9 8 20
9 9 0
9 10 48
9 11 53
9 12 100
9 13 83
9 14 83
9 15 82
9 16 114
9 17 121
9 18 117
9 19 184
9 20 179
9 21 189
9 22 199
9 23 218
9 24 193
9 25 153
9 26 133
9 27 125
9 28 162
9 29 244
9 30 195
9 31 236
9 32 188
9 33 46
9 34 141
9 35 169
9 36 62
9 37 37
9 38 89
9 39 112
9 40 103
9 41 201
9 42 232
9 43 165
9 44 200
9 45 235
9 46 210
9 47 189
9 48 171
9 49 174
9 50 171
9 51 213
9 52 59
9 53 116
9 54 260
9 55 187
9 56 161
10 1 105
10 2 161
10 3 144
10 4 181
10 5 91
10 6 138
10 7 125
10 8 57
10 9 37
10 10 0
10 11 37
10 12 53
10 13 67
10 14 67
10 15 66
10 16 98
10 17 105
10 18 101
10 19 137
10 20 132
10 21 149
10 22 183
10 23 202
10 24 177
10 25 137
10 26 117
10 27 109
10 28 146
10 29 228
10 30 179
10 31 220
10 32 172
10 33 57
10 34 125
10 35 153
10 36 99
10 37 54
10 38 41
10 39 65
10 40 87
10 41 156
10 42 187
10 43 149
10 44 184
10 45 219
10 46 194
10 47 173
10 48 201
10 49 192
10 50 155
10 51 197
10 52 43
10 53 100
10 54 244
10 55 171
10 56 145
11 1 68
11 2 124
11 3 107
11 4 144
11 5 67
11 6 114
11 7 101
11 8 33
11 9 27
11 10 75
11 11 0
11 12 47
11 13 30
11 14 30
11 15 29
11 16 61
11 17 68
11 18 64
11 19 131
11 20 126
11 21 136
11 22 146
11 23 165
11 24 140
11 25 100
11 26 80
11 27 72
11 28 109
11 29 191
11 30 142
11 31 183
11 32 135
11 33 20
11 34 88
11 35 116
11 36 75
11 37 64
11 38 54
11 39 59
11 40 50
11 41 148
11 42 179
11 43 112
11 44 147
11 45 182
11 46 157
11 47 136
11 48 164
11 49 155
11 50 118
11 51 1606
11 52 63
11 53 207
11 54 134
11 55 108
11 56 109
12 1 165
12 2 148
12 3 185
12 4 108
12 5 155
12 6 142
12 7 74
12 8 68
12 9 88
12 10 41
12 11 0
12 12 71
12 13 71
12 14 70
12 15 102
12 16 109
12 17 105
12 18 84
12 19 79
12 20 96
12 21 144
12 22 163
12 23 175
12 24 141
12 25 121
12 26 113
12 27 150
12 28 232
12 29 183
12 30 224
12 31 176
12 32 61
12 33 129
12 34 157
12 35 116
12 36 105
12 37 67
12 38 12
12 39 91
12 40 103
12 41 134
12 42 126
12 43 188
12 44 223
12 45 198
12 46 177
12 47 205
12 48 196
12 49 159
12 50 158
12 51 47
12 52 104
12 53 248
12 54 175
12 55 149
12 56 64
13 1 120
13 2 103
13 3 140
13 4 88
13 5 135
13 6 122
13 7 63
13 8 57
13 9 105
13 10 30
13 11 77
13 12 0
13 13 28
13 14 25
13 15 31
13 16 38
13 17 47
13 18 110
13 19 105
13 20 122
13 21 142
13 22 161
13 23 136
13 24 96
13 25 76
13 26 68
13 27 105
13 28 187
13 29 138
13 30 179
13 31 131
13 32 50
13 33 84
13 34 112
13 35 78
13 36 94
13 37 84
13 38 38
13 39 20
13 40 129
13 41 160
13 42 108
13 43 143
13 44 178
13 45 153
13 46 132
13 47 160
13 48 151
13 49 114
13 50 156
13 51 24
13 52 59
13 53 203
13 54 130
13 55 104
13 56 177
14 1 221
14 2 216
14 3 202
14 4 60
14 5 107
14 6 94
14 7 76
14 8 96
14 9 144
14 10 109
14 11 156
14 12 139
14 13 0
14 14 138
14 15 170
14 16 177
14 17 173
14 18 240
14 19 235
14 20 245
14 21 255
14 22 274
14 23 249
14 24 209
14 25 189
14 26 181
14 27 218
14 28 282
14 29 251
14 30 284
14 31 208
14 32 102
14 33 197
14 34 225
14 35 50
14 36 133
14 37 163
14 38 168
14 39 159
14 40 257
14 41 288
14 42 221
14 43 256
14 44 273
14 45 266
14 46 226
14 47 177
14 48 180
14 49 227
14 50 269
14 51 115
14 52 172
14 53 298
14 54 243
14 55 217
14 56 39
15 1 95
15 2 78
15 3 115
15 4 87
15 5 134
15 6 121
15 7 62
15 8 56
15 9 104
15 10 29
15 11 76
15 12 25
15 13 27
15 14 0
15 15 32
15 16 39
15 17 35
15 18 116
15 19 130
15 20 107
15 21 117
15 22 136
15 23 111
15 24 71
15 25 51
15 26 43
15 27 80
15 28 162
15 29 113
15 30 154
15 31 106
15 32 49
15 33 59
15 34 87
15 35 77
15 36 93
15 37 83
15 38 63
15 39 45
15 40 119
15 41 150
15 42 83
15 43 118
15 44 153
15 45 128
15 46 107
15 47 135
15 48 126
15 49 89
15 50 131
15 51 23
15 52 34
15 53 178
15 54 105
15 55 79
15 56 48
16 1 104
16 2 87
16 3 124
16 4 119
16 5 166
16 6 153
16 7 94
16 8 88
16 9 136
16 10 61
16 11 108
16 12 31
16 13 59
16 14 32
16 15 07
16 16 16
16 17 123
16 18 136
16 19 114
16 20 124
16 21 143
16 22 118
16 23 78
16 24 58
16 25 50
16 26 87
16 27 169
16 28 120
16 29 161
16 30 115
16 31 81
16 32 68
16 33 96
16 34 109
16 35 125
16 36 115
16 37 69
16 38 51
16 39 126
16 40 157
16 41 90
16 42 125
16 43 160
16 44 135
16 45 114
16 46 144
16 47 135
16 48 96
16 49 138
16 50 55
16 51 41
16 52 185
16 53 112
16 54 88
16 55 41
16 56 97
17 1 80
17 2 117
17 3 115
17 4 162
17 5 149
17 6 90
17 7 84
17 8 132
17 9 57
17 10 104
17 11 27
17 12 55
17 13 287
17 14 09
17 15 116
17 16 132
17 17 107
17 18 117
17 19 136
17 20 111
17 21 71
17 22 51
17 23 43
17 24 80
17 25 162
17 26 113
17 27 154
17 28 108
17 29 77
17 30 61
17 31 89
17 32 105
17 33 121
17 34 111
17 35 65
17 36 47
17 37 119
17 38 150
17 39 83
17 40 118
17 41 153
17 42 128
17 43 107
17 44 137
17 45 128
17 46 89
17 47 131
17 48 51
17 49 34
17 50 178
17 51 105
17 52 81
17 53 32
17 54 88
17 55 71
17 56 108
18 1 122
18 2 169
18 3 156
18 4 97
18 5 91
18 6 139
18 7 64
18 8 111
18 9 36
18 10 62
18 11 35
18 12 169
18 13 0
18 14 107
18 15 141
18 16 98
18 17 108
18 18 127
18 19 102
18 20 62
18 21 42
18 22 34
18 23 71
18 24 153
18 25 104
18 26 145
18 27 99
18 28 84
18 29 52
18 30 80
18 31 112
18 32 128
18 33 118
18 34 74
18 35 56
18 36 110
18 37 141
18 38 74
18 39 109
18 40 144
18 41 119
18 42 98
18 43 128
18 44 119
18 45 80
18 46 122
18 47 58
18 48 25
18 49 169
18 50 96
18 51 72
18 52 134
18 53 190
18 54 173
18 55 210
18 56 133
19 1 180
19 2 167
19 3 99
19 4 93
19 5 113
19 6 66
19 7 85
19 8 96
19 9 96
19 10 95
19 11 127
19 12 134
19 13 130
19 14 0
19 15 46
19 16 63
19 17 116
19 18 135
19 19 147
19 20 166
19 21 146
19 22 138
19 23 175
19 24 257
19 25 208
19 26 249
19 27 201
19 28 86
19 29 154
19 30 182
19 31 141
19 32 130
19 33 92
19 34 37
19 35 19
19 36 75
19 37 106
19 38 93
19 39 213
19 40 248
19 41 223
19 42 202
19 43 230
19 44 221
19 45 184
19 46 130
19 47 72
19 48 129
19 49 273
19 50 169
19 51 174
19 52 153
19 53 209
19 54 192
19 55 229
19 56 152
20 1 199
20 2 186
20 3 118
20 4 112
20 5 132
20 6 85
20 7 104
20 8 115
20 9 115
20 10 114
20 11 146
20 12 153
20 13 149
20 14 19
20 15 0
20 16 17
20 17 70
20 18 89
20 19 101
20 20 135
20 21 148
20 22 157
20 23 137
20 24 219
20 25 183
20 26 211
20 27 220
20 28 105
20 29 173
20 30 201
20 31 160
20 32 149
20 33 111
20 34 56
20 35 38
20 36 29
20 37 60
20 38 47
20 39 175
20 40 210
20 41 185
20 42 221
20 43 249
20 44 240
20 45 146
20 46 84
20 47 91
20 48 148
20 49 235
20 50 123
20 51 193
20 52 179
20 53 235
20 54 218
20 55 255
20 56 178
21 1 225
21 2 212
21 3 144
21 4 138
21 5 158
21 6 111
21 7 130
21 8 141
21 9 141
21 10 140
21 11 172
21 12 179
21 13 175
21 14 45
21 15 57
21 16 0
21 17 53
21 18 72
21 19 84
21 20 118
21 21 131
21 22 183
21 23 120
21 24 202
21 25 166
21 26 194
21 27 241
21 28 131
21 29 199
21 30 222
21 31 186
21 32 175
21 33 137
21 34 82
21 35 64
21 36 12
21 37 43
21 38 30
21 39 158
21 40 193
21 41 168
21 42 209
21 43 270
21 44 261
21 45 129
21 46 67
21 47 117
21 48 174
21 49 218
21 50 106
21 51 214
21 52 165
21 53 199
21 54 204
21 55 219
21 56 243
22 1 290
22 2 277
22 3 209
22 4 203
22 5 223
22 6 176
22 7 195
22 8 206
22 9 206
22 10 192
22 11 199
22 12 192
22 13 183
22 14 110
22 15 112
22 16 82
22 17 0
22 18 19
22 19 31
22 20 65
22 21 78
22 22 149
22 23 67
22 24 149
22 25 113
22 26 141
22 27 188
22 28 196
22 29 185
22 30 169
22 31 251
22 32 240
22 33 202
22 34 147
22 35 129
22 36 70
22 37 49
22 38 77
22 39 105
22 40 140
22 41 115
22 42 156
22 43 217
22 44 208
22 45 76
22 46 14
22 47 182
22 48 158
22 49 165
22 50 53
22 51 161
22 52 205
22 53 239
22 54 244
22 55 259
22 56 237
23 1 284
23 2 271
23 3 203
23 4 197
23 5 217
23 6 170
23 7 189
23 8 200
23 9 200
23 10 199
23 11 231
23 12 232
23 13 223
23 14 104
23 15 93
23 16 63
23 17 40
23 18 0
23 19 71
23 20 105
23 21 118
23 22 189
23 23 107
23 24 167
23 25 153
23 26 181
23 27 228
23 28 190
23 29 225
23 30 209
23 31 245
23 32 234
23 33 196
23 34 141
23 35 123
23 36 51
23 37 30
23 38 93
23 39 145
23 40 158
23 41 155
23 42 196
23 43 254
23 44 248
23 45 116
23 46 54
23 47 176
23 48 198
23 49 183
23 50 93
23 51 201
23 52 134
23 53 168
23 54 173
23 55 188
23 56 212
24 1 259
24 2 246
24 3 178
24 4 172
24 5 192
24 6 145
24 7 164
24 8 175
24 9 175
24 10 161
24 11 168
24 12 161
24 13 152
24 14 79
24 15 125
24 16 70
24 17 36
24 18 55
24 19 0
24 20 34
24 21 47
24 22 118
24 23 36
24 24 118
24 25 82
24 26 110
24 27 157
24 28 165
24 29 154
24 30 138
24 31 220
24 32 209
24 33 171
24 34 116
24 35 98
24 36 82
24 37 85
24 38 46
24 39 74
24 40 109
24 41 84
24 42 125
24 43 186
24 44 177
24 45 45
24 46 50
24 47 151
24 48 127
24 49 134
24 50 22
24 51 130
24 52 146
24 53 180
24 54 185
24 55 200
24 56 178
25 1 225
25 2 212
25 3 144
25 4 138
25 5 158
25 6 111
25 7 130
25 8 141
25 9 141
25 10 140
25 11 172
25 12 173
25 13 164
25 14 45
25 15 91
25 16 36
25 17 46
25 18 65
25 19 77
25 20 0
25 21 59
25 22 130
25 23 48
25 24 130
25 25 94
25 26 122
25 27 169
25 28 131
25 29 166
25 30 150
25 31 186
25 32 175
25 33 137
25 34 82
25 35 64
25 36 48
25 37 79
25 38 12
25 39 86
25 40 121
25 41 96
25 42 137
25 43 198
25 44 189
25 45 57
25 46 60
25 47 117
25 48 139
25 49 146
25 50 34
25 51 142
25 52 166
25 53 200
25 54 205
25 55 220
25 56 198
26 1 245
26 2 232
26 3 164
26 4 158
26 5 178
26 6 131
26 7 150
26 8 161
26 9 161
26 10 160
26 11 192
26 12 193
26 13 184
26 14 65
26 15 111
26 16 56
26 17 66
26 18 85
26 19 97
26 20 20
26 21 0
26 22 150
26 23 68
26 24 150
26 25 114
26 26 142
26 27 189
26 28 151
26 29 186
26 30 170
26 31 206
26 32 195
26 33 157
26 34 102
26 35 84
26 36 68
26 37 99
26 38 32
26 39 106
26 40 141
26 41 116
26 42 157
26 43 218
26 44 209
26 45 77
26 46 80
26 47 137
26 48 159
26 49 166
26 50 54
26 51 162
26 52 16
26 53 72
26 54 55
26 55 92
26 56 125
27 1 172
27 2 156
27 3 105
27 4 99
27 5 147
27 6 72
27 7 119
27 8 68
27 9 70
27 10 43
27 11 50
27 12 43
27 13 34
27 14 73
27 15 119
27 16 64
27 17 74
27 18 93
27 19 68
27 20 288
27 21 0
27 22 37
27 23 119
27 24 70
27 25 111
27 26 83
27 27 92
27 28 36
27 29 64
27 30 120
27 31 136
27 32 126
27 33 106
27 34 88
27 35 76
27 36 107
27 37 40
27 38 75
27 39 110
27 40 85
27 41 64
27 42 112
27 43 103
27 44 46
27 45 88
27 46 669
27 47 135
27 48 62
27 49 56
27 50 98
27 51 132
27 52 137
27 53 152
27 54 185
27 55 232
27 56 216
28 1 187
28 2 181
28 3 223
28 4 154
28 5 195
28 6 150
28 7 152
28 8 125
28 9 132
28 10 125
28 11 116
28 12 110
28 13 156
28 14 101
28 15 67
28 16 86
28 17 31
28 18 65
28 19 78
28 20 82
28 21 0
28 22 82
28 23 46
28 24 74
28 25 121
28 26 174
28 27 118
28 28 102
28 29 202
28 30 218
28 31 202
28 32 147
28 33 129
28 34 113
28 35 116
28 36 77
28 37 38
28 38 73
28 39 48
28 40 89
28 41 150
28 42 1419
28 43 81
28 44 148
28 45 91
28 46 98
28 47 53
28 48 94
28 49 80
28 50 114
28 51 119
28 52 134
28 53 167
28 54 214
28 55 198
28 56 169
29 1 163
29 2 211
29 3 136
29 4 183
29 5 132
29 6 134
29 7 107
29 8 114
29 9 107
29 10 98
29 11 137
29 12 183
29 13 128
29 14 110
29 15 129
29 16 74
29 17 92
29 18 72
29 19 64
29 20 43
29 21 0
29 22 28
29 23 56
29 24 103
29 25 156
29 26 100
29 27 84
29 28 184
29 29 200
29 30 190
29 31 170
29 32 152
29 33 140
29 34 159
29 35 104
29 36 42
29 37 62
29 38 30
29 39 71
29 40 132
29 41 123
29 42 52
29 43 124
29 44 130
29 45 73
29 46 16
29 47 96
29 48 76
29 49 52
29 50 101
29 51 91
29 52 121
29 53 154
29 54 201
29 55 185
29 56 141
30 1 135
30 2 183
30 3 108
30 4 155
30 5 104
30 6 106
30 7 79
30 8 86
30 9 79
30 10 70
30 11 109
30 12 155
30 13 100
30 14 82
30 15 101
30 16 46
30 17 64
30 18 44
30 19 36
30 20 15
30 21 97
30 22 0
30 23 89
30 24 90
30 25 128
30 26 72
30 27 71
30 28 156
30 29 172
30 30 162
30 31 142
30 32 124
30 33 112
30 34 131
30 35 76
30 36 53
30 37 88
30 38 63
30 39 58
30 40 119
30 41 110
30 42 24
30 43 96
30 44 102
30 45 45
30 46 113
30 47 68
30 48 63
30 49 124
30 50 86
30 51 102
30 52 106
30 53 139
30 54 186
30 55 170
30 56 173
31 1 193
31 2 241
31 3 171
31 4 218
31 5 167
31 6 139
31 7 142
31 8 158
31 9 151
31 10 142
31 11 181
31 12 227
31 13 172
31 14 154
31 15 173
31 16 118
31 17 136
31 18 116
31 19 108
31 20 87
31 21 168
31 22 72
31 23 0
31 24 75
31 25 191
31 26 128
31 27 56
31 28 189
31 29 230
31 30 225
31 31 205
31 32 187
31 33 184
31 34 203
31 35 148
31 36 125
31 37 159
31 38 135
31 39 34
31 40 104
31 41 95
31 42 96
31 43 168
31 44 165
31 45 117
31 46 184
31 47 140
31 48 48
31 49 108
31 50 70
31 51 86
31 52 51
31 53 84
31 54 131
31 55 115
31 56 118
32 1 138
32 2 186
32 3 151
32 4 198
32 5 151
32 6 123
32 7 126
32 8 142
32 9 135
32 10 126
32 11 165
32 12 211
32 13 156
32 14 138
32 15 157
32 16 102
32 17 120
32 18 100
32 19 92
32 20 71
32 21 93
32 22 56
32 23 95
32 24 0
32 25 144
32 26 112
32 27 40
32 28 160
32 29 175
32 30 205
32 31 189
32 32 171
32 33 168
32 34 187
32 35 132
32 36 109
32 37 84
32 38 93
32 39 18
32 40 29
32 41 29
32 42 80
32 43 152
32 44 149
32 45 101
32 46 109
32 47 124
32 48 32
32 49 128
32 50 184
32 51 167
32 52 203
32 53 61
32 54 108
32 55 95
32 56 27
33 1 7
33 2 55
33 3 60
33 4 107
33 5 90
33 6 90
33 7 89
33 8 121
33 9 128
33 10 124
33 11 191
33 12 186
33 13 196
33 14 206
33 15 225
33 16 200
33 17 160
33 18 140
33 19 132
33 20 169
33 21 251
33 22 202
33 23 243
33 24 195
33 25 0
33 26 148
33 27 176
33 28 69
33 29 44
33 30 96
33 31 119
33 32 110
33 33 208
33 34 239
33 35 172
33 36 207
33 37 242
33 38 217
33 39 196
33 40 178
33 41 181
33 42 178
33 43 220
33 44 66
33 45 123
33 46 267
33 47 194
33 48 168
33 49 53
33 50 36
33 51 19
33 52 56
33 53 89
33 54 136
33 55 120
33 56 121
34 1 115
34 2 163
34 3 88
34 4 135
34 5 84
34 6 56
34 7 59
34 8 84
34 9 77
34 10 68
34 11 110
34 12 156
34 13 101
34 14 111
34 15 130
34 16 105
34 17 65
34 18 45
34 19 37
34 20 74
34 21 140
34 22 60
34 23 142
34 24 47
34 25 108
34 26 0
34 27 28
34 28 106
34 29 152
34 30 142
34 31 122
34 32 104
34 33 113
34 34 144
34 35 77
34 36 112
34 37 131
34 38 122
34 39 54
34 40 76
34 41 67
34 42 83
34 43 125
34 44 82
34 45 46
34 46 156
34 47 99
34 48 20
34 49 87
34 50 30
34 51 46
34 52 50
34 53 83
34 54 130
34 55 114
34 56 117
35 1 137
35 2 185
35 3 115
35 4 162
35 5 111
35 6 83
35 7 86
35 8 111
35 9 104
35 10 95
35 11 176
35 12 216
35 13 167
35 14 176
35 15 195
35 16 140
35 17 131
35 18 111
35 19 103
35 20 109
35 21 131
35 22 94
35 23 133
35 24 38
35 25 135
35 26 72
35 27 0
35 28 133
35 29 174
35 30 169
35 31 149
35 32 131
35 33 179
35 34 210
35 35 143
35 36 147
35 37 122
35 38 131
35 39 56
35 40 67
35 41 39
35 42 118
35 43 190
35 44 109
35 45 94
35 46 147
35 47 162
35 48 70
35 49 155
35 50 199
35 51 194
35 52 180
35 53 38
35 54 85
35 55 72
35 56 54
36 1 74
36 2 122
36 3 87
36 4 134
36 5 117
36 6 117
36 7 116
36 8 148
36 9 155
36 10 151
36 11 218
36 12 213
36 13 223
36 14 233
36 15 252
36 16 227
36 17 187
36 18 167
36 19 159
36 20 196
36 21 260
36 22 229
36 23 262
36 24 186
36 25 80
36 26 175
36 27 203
36 28 0
36 29 111
36 30 141
36 31 146
36 32 137
36 33 235
36 34 266
36 35 199
36 36 234
36 37 251
36 38 244
36 39 204
36 40 155
36 41 158
36 42 205
36 43 247
36 44 93
36 45 150
36 46 276
36 47 221
36 48 195
36 49 116
36 50 172
36 51 155
36 52 192
36 53 91
36 54 138
36 55 122
36 56 57
37 1 37
37 2 11
37 3 48
37 4 64
37 5 78
37 6 78
37 7 77
37 8 109
37 9 116
37 10 112
37 11 148
37 12 143
37 13 160
37 14 194
37 15 213
37 16 188
37 17 148
37 18 128
37 19 120
37 20 157
37 21 239
37 22 190
37 23 231
37 24 183
37 25 68
37 26 136
37 27 164
37 28 99
37 29 0
37 30 52
37 31 76
37 32 98
37 33 167
37 34 198
37 35 160
37 36 195
37 37 230
37 38 205
37 39 184
37 40 208
37 41 203
37 42 166
37 43 208
37 44 54
37 45 111
37 46 255
37 47 182
37 48 156
37 49 126
37 50 182
37 51 165
37 52 202
37 53 112
37 54 159
37 55 146
37 56 78
38 1 58
38 2 21
38 3 58
38 4 71
38 5 88
38 6 88
38 7 87
38 8 119
38 9 126
38 10 122
38 11 155
38 12 150
38 13 167
38 14 204
38 15 223
38 16 198
38 17 158
38 18 138
38 19 130
38 20 167
38 21 249
38 22 200
38 23 241
38 24 193
38 25 78
38 26 146
38 27 174
38 28 120
38 29 44
38 30 0
38 31 83
38 32 108
38 33 174
38 34 205
38 35 170
38 36 205
38 37 240
38 38 215
38 39 194
38 40 222
38 41 213
38 42 176
38 43 218
38 44 64
38 45 121
38 46 265
38 47 192
38 48 166
38 49 97
38 50 153
38 51 136
38 52 173
38 53 96
38 54 143
38 55 130
38 56 62
39 1 56
39 2 76
39 3 29
39 4 48
39 5 59
39 6 59
39 7 58
39 8 90
39 9 97
39 10 93
39 11 72
39 12 67
39 13 84
39 14 132
39 15 151
39 16 163
39 17 129
39 18 109
39 19 101
39 20 138
39 21 220
39 22 171
39 23 212
39 24 164
39 25 49
39 26 117
39 27 145
39 28 104
39 29 93
39 30 55
39 31 0
39 32 79
39 33 91
39 34 122
39 35 114
39 36 176
39 37 211
39 38 186
39 39 165
39 40 193
39 41 184
39 42 147
39 43 146
39 44 35
39 45 92
39 46 236
39 47 163
39 48 137
39 49 115
39 50 171
39 51 154
39 52 191
39 53 114
39 54 161
39 55 148
39 56 80
40 1 74
40 2 94
40 3 47
40 4 66
40 5 77
40 6 77
40 7 76
40 8 108
40 9 115
40 10 111
40 11 90
40 12 85
40 13 102
40 14 150
40 15 169
40 16 181
40 17 147
40 18 127
40 19 119
40 20 156
40 21 238
40 22 189
40 23 230
40 24 182
40 25 67
40 26 135
40 27 163
40 28 122
40 29 111
40 30 73
40 31 18
40 32 0
40 33 109
40 34 140
40 35 132
40 36 194
40 37 229
40 38 204
40 39 183
40 40 211
40 41 202
40 42 165
40 43 164
40 44 53
40 45 110
40 46 254
40 47 181
40 48 155
40 49 190
40 50 240
40 51 229
40 52 260
40 53 189
40 54 236
40 55 223
40 56 155
41 1 149
41 2 169
41 3 122
41 4 141
41 5 152
41 6 152
41 7 151
41 8 183
41 9 190
41 10 186
41 11 56
41 12 45
41 13 12
41 14 41
41 15 60
41 16 72
41 17 106
41 18 119
41 19 190
41 20 108
41 21 190
41 22 154
41 23 182
41 24 229
41 25 142
41 26 210
41 27 210
41 28 197
41 29 186
41 30 148
41 31 93
41 32 75
41 33 0
41 34 31
41 35 42
41 36 146
41 37 181
41 38 156
41 39 197
41 40 258
41 41 249
41 42 117
41 43 55
41 44 128
41 45 185
41 46 206
41 47 94
41 48 202
41 49 175
41 50 209
41 51 214
41 52 229
41 53 253
41 54 300
41 55 287
41 56 219
42 1 213
42 2 233
42 3 186
42 4 205
42 5 216
42 6 216
42 7 202
42 8 209
42 9 202
42 10 193
42 11 120
42 12 122
42 13 92
42 14 10
42 15 29
42 16 41
42 17 75
42 18 88
42 19 159
42 20 77
42 21 159
42 22 123
42 23 151
42 24 198
42 25 206
42 26 195
42 27 179
42 28 261
42 29 250
42 30 212
42 31 157
42 32 139
42 33 80
42 34 0
42 35 87
42 36 115
42 37 150
42 38 125
42 39 166
42 40 227
42 41 218
42 42 86
42 43 24
42 44 192
42 45 168
42 46 175
42 47 63
42 48 171
42 49 199
42 50 233
42 51 238
42 52 253
42 53 277
42 54 324
42 55 311
42 56 243
43 1 237
43 2 257
43 3 210
43 4 229
43 5 240
43 6 240
43 7 226
43 8 233
43 9 226
43 10 217
43 11 144
43 12 146
43 13 116
43 14 34
43 15 53
43 16 65
43 17 99
43 18 112
43 19 183
43 20 101
43 21 183
43 22 147
43 23 175
43 24 222
43 25 230
43 26 219
43 27 203
43 28 285
43 29 274
43 30 236
43 31 181
43 32 163
43 33 104
43 34 83
43 35 0
43 36 139
43 37 174
43 38 149
43 39 190
43 40 251
43 41 242
43 42 110
43 43 48
43 44 216
43 45 192
43 46 199
43 47 87
43 48 195
43 49 124
43 50 158
43 51 163
43 52 178
43 53 211
43 54 250
43 55 219
43 56 213
44 1 207
44 2 255
44 3 180
44 4 227
44 5 176
44 6 178
44 7 151
44 8 158
44 9 151
44 10 142
44 11 154
44 12 189
44 13 145
44 14 111
44 15 96
44 16 75
44 17 109
44 18 116
44 19 108
44 20 87
44 21 44
44 22 72
44 23 86
44 24 141
44 25 200
44 26 144
44 27 128
44 28 228
44 29 244
44 30 234
44 31 191
44 32 173
44 33 147
44 34 126
44 35 121
44 36 0
44 37 35
44 38 74
44 39 115
44 40 131
44 41 167
44 42 96
44 43 125
44 44 174
44 45 117
44 46 60
44 47 97
44 48 120
44 49 89
44 50 123
44 51 128
44 52 143
44 53 176
44 54 215
44 55 184
44 56 178
45 1 172
45 2 220
45 3 145
45 4 192
45 5 141
45 6 143
45 7 116
45 8 123
45 9 116
45 10 107
45 11 146
45 12 192
45 13 137
45 14 119
45 15 138
45 16 83
45 17 101
45 18 81
45 19 73
45 20 529
45 21 37
45 22 51
45 23 106
45 24 165
45 25 109
45 26 93
45 27 193
45 28 209
45 29 199
45 30 179
45 31 161
45 32 149
45 33 168
45 34 113
45 35 51
45 36 0
45 37 39
45 38 80
45 39 96
45 40 132
45 41 61
45 42 133
45 43 139
45 44 82
45 45 25
45 46 105
45 47 85
45 48 99
45 49 84
45 50 100
45 51 104
45 52 137
45 53 184
45 54 168
45 55 171
45 56 182
46 1 230
46 2 155
46 3 202
46 4 151
46 5 137
46 6 126
46 7 133
46 8 126
46 9 117
46 10 156
46 11 202
46 12 147
46 13 129
46 14 148
46 15 93
46 16 111
46 17 91
46 18 83
46 19 62
46 20 41
46 21 47
46 22 26
46 23 73
46 24 175
46 25 119
46 26 54
46 27 187
46 28 219
46 29 209
46 30 189
46 31 171
46 32 159
46 33 178
46 34 123
46 35 83
46 36 32
46 37 0
46 38 41
46 39 102
46 40 93
46 41 71
46 42 143
46 43 149
46 44 92
46 45 57
46 46 115
46 47 46
46 48 90
46 49 52
46 50 68
46 51 72
46 52 105
46 53 152
46 54 136
46 55 139
46 56 159
47 1 207
47 2 137
47 3 184
47 4 133
47 5 105
47 6 108
47 7 124
47 8 117
47 9 108
47 10 147
47 11 193
47 12 138
47 13 120
47 14 139
47 15 84
47 16 102
47 17 82
47 18 74
47 19 53
47 20 134
47 21 38
47 22 127
47 23 41
47 24 157
47 25 94
47 26 22
47 27 155
47 28 196
47 29 191
47 30 171
47 31 153
47 32 150
47 33 169
47 34 114
47 35 91
47 36 125
47 37 101
47 38 0
47 39 70
47 40 61
47 41 62
47 42 134
47 43 131
47 44 83
47 45 150
47 46 106
47 47 14
47 48 160
47 49 103
47 50 119
47 51 84
47 52 117
47 53 119
47 54 88
47 55 151
47 56 171
48 1 219
48 2 184
48 3 231
48 4 184
48 5 156
48 6 159
48 7 184
48 8 177
48 9 168
48 10 226
48 11 272
48 12 217
48 13 199
48 14 218
48 15 163
48 16 181
48 17 161
48 18 153
48 19 132
48 20 105
48 21 117
48 22 107
48 23 61
48 24 177
48 25 145
48 26 101
48 27 193
48 28 208
48 29 238
48 30 222
48 31 204
48 32 229
48 33 248
48 34 193
48 35 147
48 36 96
48 37 105
48 38 79
48 39 0
48 40 62
48 41 141
48 42 213
48 43 182
48 44 162
48 45 121
48 46 185
48 47 93
48 48 98
48 49 41
48 50 57
48 51 22
48 52 55
48 53 102
48 54 86
48 55 89
48 56 109
49 1 157
49 2 122
49 3 169
49 4 122
49 5 94
49 6 97
49 7 122
49 8 115
49 9 106
49 10 187
49 11 227
49 12 178
49 13 167
49 14 186
49 15 131
49 16 142
49 17 122
49 18 114
49 19 100
49 20 122
49 21 85
49 22 124
49 23 29
49 24 115
49 25 83
49 26 69
49 27 131
49 28 146
49 29 176
49 30 160
49 31 142
49 32 190
49 33 216
49 34 154
49 35 138
49 36 113
49 37 122
49 38 47
49 39 58
49 40 0
49 41 109
49 42 181
49 43 120
49 44 105
49 45 138
49 46 153
49 47 61
49 48 89
49 49 123
49 50 128
49 51 143
49 52 176
49 53 223
49 54 207
49 55 178
49 56 172
50 1 220
50 2 145
50 3 192
50 4 141
50 5 143
50 6 116
50 7 123
50 8 116
50 9 107
50 10 146
50 11 192
50 12 137
50 13 119
50 14 123
50 15 83
50 16 101
50 17 81
50 18 73
50 19 52
50 20 73
50 21 37
50 22 65
50 23 112
50 24 165
50 25 109
50 26 93
50 27 193
50 28 209
50 29 199
50 30 179
50 31 161
50 32 149
50 33 153
50 34 113
50 35 29
50 36 64
50 37 39
50 38 80
50 39 141
50 40 132
50 41 0
50 42 133
50 43 139
50 44 82
50 45 89
50 46 105
50 47 85
50 48 151
50 49 185
50 50 190
50 51 205
50 52 229
50 53 276
50 54 263
50 55 195
50 56 189
51 1 209
51 2 162
51 3 181
51 4 192
51 5 192
51 6 178
51 7 185
51 8 178
51 9 169
51 10 96
51 11 132
51 12 87
51 13 53
51 14 39
51 15 17
51 16 51
51 17 64
51 18 135
51 19 53
51 20 135
51 21 99
51 22 127
51 23 174
51 24 182
51 25 171
51 26 155
51 27 237
51 28 226
51 29 188
51 30 133
51 31 115
51 32 90
51 33 69
51 34 63
51 35 91
51 36 126
51 37 101
51 38 142
51 39 203
51 40 194
51 41 62
51 42 0
51 43 168
51 44 144
51 45 151
51 46 39
51 47 147
51 48 62
51 49 118
51 50 101
51 51 138
51 52 73
51 53 120
51 54 107
51 55 39
51 56 33
52 1 816
52 2 53
52 3 24
52 4 24
52 5 23
52 6 55
52 7 62
52 8 58
52 9 134
52 10 129
52 11 130
52 12 140
52 13 159
52 14 134
52 15 94
52 16 74
52 17 66
52 18 103
52 19 185
52 20 136
52 21 177
52 22 129
52 23 26
52 24 82
52 25 110
52 26 74
52 27 70
52 28 60
52 29 62
52 30 44
52 31 142
52 32 173
52 33 106
52 34 141
52 35 176
52 36 151
52 37 130
52 38 158
52 39 149
52 40 112
52 41 154
52 42 0
52 43 57
52 44 201
52 45 128
52 46 1027
52 47 63
52 48 46
52 49 83
52 50 116
52 51 163
52 52 147
52 53 96
52 54 90
52 55 138
52 56 63
53 1 110
53 2 59
53 3 61
53 4 34
53 5 41
53 6 34
53 7 25
53 8 82
53 9 128
53 10 73
53 11 83
53 12 102
53 13 77
53 14 37
53 15 179
53 16 46
53 17 128
53 18 79
53 19 120
53 20 74
53 21 83
53 22 27
53 23 55
53 24 111
53 25 127
53 26 117
53 27 97
53 28 79
53 29 85
53 30 116
53 31 49
53 32 84
53 33 119
53 34 94
53 35 73
53 36 103
53 37 94
53 38 55
53 39 97
53 40 57
53 41 0
53 42 144
53 43 71
53 44 47
53 45 150
53 46 184
53 47 189
53 48 204
53 49 237
53 50 276
53 51 245
53 52 239
53 53 233
53 54 281
53 55 206
53 56 253
54 1 202
54 2 204
54 3 177
54 4 184
54 5 177
54 6 168
54 7 180
54 8 215
54 9 171
54 10 137
54 11 122
54 12 101
54 13 135
54 14 142
54 15 134
54 16 113
54 17 70
54 18 98
54 19 112
54 20 167
54 21 226
54 22 170
54 23 154
54 24 254
54 25 270
54 26 260
54 27 217
54 28 199
54 29 173
54 30 152
54 31 147
54 32 26
54 33 61
54 34 100
54 35 141
54 36 157
54 37 193
54 38 122
54 39 151
54 40 200
54 41 143
54 42 0
54 43 123
54 44 146
54 45 112
54 46 146
54 47 151
54 48 166
54 49 199
54 50 246
54 51 230
54 52 201
54 53 195
54 54 237
54 55 168
54 56 209
55 1 164
55 2 166
55 3 139
55 4 146
55 5 139
55 6 130
55 7 124
55 8 170
55 9 115
55 10 81
55 11 100
55 12 45
55 13 79
55 14 92
55 15 96
55 16 14
55 17 96
55 18 60
55 19 88
55 20 135
55 21 188
55 22 132
55 23 116
55 24 216
55 25 232
55 26 216
55 27 161
55 28 143
55 29 127
55 30 130
55 31 91
55 32 52
55 33 87
55 34 62
55 35 103
55 36 164
55 37 155
55 38 23
55 39 95
55 40 162
55 41 105
55 42 112
55 43 0
55 44 108
55 45 95
55 46 38
55 47 54
55 48 58
55 49 91
55 50 138
55 51 122
55 52 125
55 53 145
55 54 193
55 55 123
55 56 170
56 1 119
56 2 91
56 3 94
56 4 119
56 5 112
56 6 103
56 7 184
56 8 224
56 9 175
56 10 165
56 11 184
56 12 129
56 13 139
56 14 119
56 15 111
56 16 98
56 17 120
56 18 83
56 19 122
56 20 27
56 21 143
56 22 80
56 23 8
56 24 141
56 25 182
56 26 177
56 27 157
56 28 139
56 29 187
56 30 214
56 31 151
56 32 136
56 33 111
56 34 120
56 35 45
56 36 56
56 37 47
56 38 107
56 39 179
56 40 117
56 41 102
56 42 136
56 43 1510
56 44 1510
56 45 1510
56 46 1510
56 47 1510
56 48 1510
56 49 1510
56 50 1510
56 51 1510
56 52 1510
56 53 1510
56 54 1510
56 55 1510
56 56 1510
